solution status: optimal solution found
objective value:                     137140.710000004
d11(0,0)                                            1 	(obj:0)
d11(1,1)                                            1 	(obj:0)
d11(2,4)                                            1 	(obj:0)
d11(2,5)                                            1 	(obj:0)
d11(2,7)                                            1 	(obj:0)
d11(2,8)                                            1 	(obj:0)
d11(2,10)                                           1 	(obj:0)
d11(2,11)                                           1 	(obj:0)
d11(3,13)                                           1 	(obj:0)
d11(3,16)                                           1 	(obj:0)
d11(3,17)                                           1 	(obj:0)
d11(3,19)                                           1 	(obj:0)
d11(3,22)                                           1 	(obj:0)
d11(3,23)                                           1 	(obj:0)
d11(3,25)                                           1 	(obj:0)
d11(3,26)                                           1 	(obj:0)
d11(3,28)                                           1 	(obj:0)
d11(3,29)                                           1 	(obj:0)
d11(3,31)                                           1 	(obj:0)
d11(3,32)                                           1 	(obj:0)
d11(3,34)                                           1 	(obj:0)
d11(3,35)                                           1 	(obj:0)
d11(3,37)                                           1 	(obj:0)
d11(3,38)                                           1 	(obj:0)
d12(1,3)                                            1 	(obj:0)
d12(3,15)                                           1 	(obj:0)
d12(3,18)                                           1 	(obj:0)
d12(3,21)                                           1 	(obj:0)
d12(3,24)                                           1 	(obj:0)
d12(3,27)                                           1 	(obj:0)
d12(3,30)                                           1 	(obj:0)
d12(3,33)                                           1 	(obj:0)
d12(3,36)                                           1 	(obj:0)
d12(3,39)                                           1 	(obj:0)
d12(4,41)                                           1 	(obj:0)
d12(4,42)                                           1 	(obj:0)
d12(4,44)                                           1 	(obj:0)
d12(4,45)                                           1 	(obj:0)
d12(4,47)                                           1 	(obj:0)
d12(4,48)                                           1 	(obj:0)
d12(4,50)                                           1 	(obj:0)
d12(4,51)                                           1 	(obj:0)
d12(4,53)                                           1 	(obj:0)
d12(4,54)                                           1 	(obj:0)
d12(4,56)                                           1 	(obj:0)
d12(4,57)                                           1 	(obj:0)
d12(4,59)                                           1 	(obj:0)
d12(4,60)                                           1 	(obj:0)
d12(4,62)                                           1 	(obj:0)
d12(4,63)                                           1 	(obj:0)
d12(4,65)                                           1 	(obj:0)
d12(4,66)                                           1 	(obj:0)
d12(4,68)                                           1 	(obj:0)
d12(4,69)                                           1 	(obj:0)
d12(4,71)                                           1 	(obj:0)
d12(4,72)                                           1 	(obj:0)
d12(4,74)                                           1 	(obj:0)
d12(4,75)                                           1 	(obj:0)
d12(4,77)                                           1 	(obj:0)
d12(4,78)                                           1 	(obj:0)
d12(4,80)                                           1 	(obj:0)
d12(4,81)                                           1 	(obj:0)
d12(4,83)                                           1 	(obj:0)
d12(4,84)                                           1 	(obj:0)
d12(4,86)                                           1 	(obj:0)
d12(4,87)                                           1 	(obj:0)
d12(4,89)                                           1 	(obj:0)
d12(4,90)                                           1 	(obj:0)
d12(4,92)                                           1 	(obj:0)
d12(4,93)                                           1 	(obj:0)
d12(4,95)                                           1 	(obj:0)
d12(4,96)                                           1 	(obj:0)
d12(4,98)                                           1 	(obj:0)
d12(4,99)                                           1 	(obj:0)
d12(4,101)                                          1 	(obj:0)
d12(4,102)                                          1 	(obj:0)
d12(4,104)                                          1 	(obj:0)
d12(4,105)                                          1 	(obj:0)
d12(4,107)                                          1 	(obj:0)
d12(4,108)                                          1 	(obj:0)
d12(4,110)                                          1 	(obj:0)
d12(4,111)                                          1 	(obj:0)
d12(4,113)                                          1 	(obj:0)
d12(4,114)                                          1 	(obj:0)
d12(4,116)                                          1 	(obj:0)
d12(4,117)                                          1 	(obj:0)
d12(4,119)                                          1 	(obj:0)
d12(4,120)                                          1 	(obj:0)
y2(4,101)                            798.591296999947 	(obj:0)
y2(4,102)                            1894.29827999999 	(obj:0)
y2(4,104)                            798.591296999947 	(obj:0)
y2(4,105)                            1894.29827999999 	(obj:0)
y2(4,107)                            798.591296999947 	(obj:0)
y2(4,108)                            1894.29827999999 	(obj:0)
y2(4,110)                            798.591296999947 	(obj:0)
y2(4,111)                            1894.29827999999 	(obj:0)
y2(4,113)                            798.591296999947 	(obj:0)
y2(4,114)                            1894.29827999999 	(obj:0)
y2(4,116)                            798.591296999947 	(obj:0)
y2(4,117)                            1894.29827999999 	(obj:0)
y2(4,119)                            798.591296999947 	(obj:0)
y2(4,120)                            1894.29827999999 	(obj:0)
STE(1,1)                             10595.2339966667 	(obj:0)
STE(0,0)                                        12600 	(obj:0)
STE(1,2)                                        11592 	(obj:0)
STE(1,3)                               12504.56333385 	(obj:0)
STE(2,4)                             7373.01578999997 	(obj:0)
STE(2,5)                             8369.78179333326 	(obj:0)
STE(2,6)                             9587.23399666665 	(obj:0)
STE(2,7)                             8369.78179333332 	(obj:0)
STE(2,8)                             9366.54779666661 	(obj:0)
STE(2,9)                                        10584 	(obj:0)
STE(2,10)                             9282.3451271833 	(obj:0)
STE(2,11)                            10279.1111305166 	(obj:0)
STE(2,12)                              11496.56333385 	(obj:0)
STE(3,13)                            5368.24978666662 	(obj:0)
STE(3,14)                            6365.01578999997 	(obj:0)
STE(3,15)                            7277.57912384995 	(obj:0)
STE(3,16)                            6365.01578999993 	(obj:0)
STE(3,17)                            7361.78179333326 	(obj:0)
STE(3,18)                            8274.34512718324 	(obj:0)
STE(3,19)                             7582.4679933333 	(obj:0)
STE(3,20)                            8579.23399666665 	(obj:0)
STE(3,21)                            9491.79733051664 	(obj:0)
STE(3,22)                            6365.01579000005 	(obj:0)
STE(3,23)                            7361.78179333338 	(obj:0)
STE(3,24)                             8274.3451271833 	(obj:0)
STE(3,25)                             7361.7817933333 	(obj:0)
STE(3,26)                            8358.54779666655 	(obj:0)
STE(3,27)                            9271.11113051659 	(obj:0)
STE(3,28)                            8579.23399666671 	(obj:0)
STE(3,29)                            9576.00000000006 	(obj:0)
STE(3,30)                              10488.56333385 	(obj:0)
STE(3,31)                               7277.57912385 	(obj:0)
STE(3,32)                             8274.3451271833 	(obj:0)
STE(3,33)                            9186.90846103329 	(obj:0)
STE(3,34)                            8274.34512718324 	(obj:0)
STE(3,35)                            9271.11113051659 	(obj:0)
STE(3,36)                            10183.6744643666 	(obj:0)
STE(3,37)                            9491.79733051671 	(obj:0)
STE(3,38)                              10488.56333385 	(obj:0)
STE(3,39)                               11401.1266677 	(obj:0)
STE(4,40)                            4360.24978666662 	(obj:0)
STE(4,41)                            5118.91151881657 	(obj:0)
STE(4,42)                             6159.8331526666 	(obj:0)
STE(4,43)                            5357.01578999997 	(obj:0)
STE(4,44)                            6115.67752214992 	(obj:0)
STE(4,45)                            7156.59915599995 	(obj:0)
STE(4,46)                            6269.57912384995 	(obj:0)
STE(4,47)                             7028.2408559999 	(obj:0)
STE(4,48)                            8069.16248984994 	(obj:0)
STE(4,49)                            5357.01578999993 	(obj:0)
STE(4,50)                            6115.67752214988 	(obj:0)
STE(4,51)                            7156.59915599992 	(obj:0)
STE(4,52)                            6353.78179333326 	(obj:0)
STE(4,53)                            7112.44352548321 	(obj:0)
STE(4,54)                            8153.36515933325 	(obj:0)
STE(4,55)                            7266.34512718324 	(obj:0)
STE(4,56)                            8025.00685933319 	(obj:0)
STE(4,57)                            9065.92849318323 	(obj:0)
STE(4,58)                             6574.4679933333 	(obj:0)
STE(4,59)                            7333.12972548325 	(obj:0)
STE(4,60)                            8374.05135933329 	(obj:0)
STE(4,61)                            7571.23399666665 	(obj:0)
STE(4,62)                             8329.8957288166 	(obj:0)
STE(4,63)                            9370.81736266664 	(obj:0)
STE(4,64)                            8483.79733051664 	(obj:0)
STE(4,65)                            9242.45906266659 	(obj:0)
STE(4,66)                            10283.3806965166 	(obj:0)
STE(4,67)                            5357.01579000005 	(obj:0)
STE(4,68)                               6115.67752215 	(obj:0)
STE(4,69)                            7156.59915600004 	(obj:0)
STE(4,70)                            6353.78179333338 	(obj:0)
STE(4,71)                            7112.44352548333 	(obj:0)
STE(4,72)                            8153.36515933337 	(obj:0)
STE(4,73)                             7266.3451271833 	(obj:0)
STE(4,74)                            8025.00685933325 	(obj:0)
STE(4,75)                            9065.92849318329 	(obj:0)
STE(4,76)                             6353.7817933333 	(obj:0)
STE(4,77)                            7112.44352548325 	(obj:0)
STE(4,78)                            8153.36515933329 	(obj:0)
STE(4,79)                            7350.54779666655 	(obj:0)
STE(4,80)                             8109.2095288165 	(obj:0)
STE(4,81)                            9150.13116266654 	(obj:0)
STE(4,82)                            8263.11113051659 	(obj:0)
STE(4,83)                            9021.77286266654 	(obj:0)
STE(4,84)                            10062.6944965166 	(obj:0)
STE(4,85)                            7571.23399666671 	(obj:0)
STE(4,86)                            8329.89572881666 	(obj:0)
STE(4,87)                             9370.8173626667 	(obj:0)
STE(4,88)                            8568.00000000006 	(obj:0)
STE(4,89)                            9326.66173215001 	(obj:0)
STE(4,90)                            10367.5833660001 	(obj:0)
STE(4,91)                            9480.56333384999 	(obj:0)
STE(4,92)                            10239.2250659999 	(obj:0)
STE(4,93)                              11280.14669985 	(obj:0)
STE(4,94)                               6269.57912385 	(obj:0)
STE(4,95)                            7028.24085599995 	(obj:0)
STE(4,96)                            8069.16248984998 	(obj:0)
STE(4,97)                             7266.3451271833 	(obj:0)
STE(4,98)                            8025.00685933325 	(obj:0)
STE(4,99)                            9065.92849318329 	(obj:0)
STE(4,100)                           8178.90846103329 	(obj:0)
STE(4,101)                           8937.57019318324 	(obj:0)
STE(4,102)                           9978.49182703328 	(obj:0)
STE(4,103)                           7266.34512718324 	(obj:0)
STE(4,104)                           8025.00685933319 	(obj:0)
STE(4,105)                           9065.92849318323 	(obj:0)
STE(4,106)                           8263.11113051659 	(obj:0)
STE(4,107)                           9021.77286266654 	(obj:0)
STE(4,108)                           10062.6944965166 	(obj:0)
STE(4,109)                           9175.67446436658 	(obj:0)
STE(4,110)                           9934.33619651653 	(obj:0)
STE(4,111)                           10975.2578303666 	(obj:0)
STE(4,112)                           8483.79733051671 	(obj:0)
STE(4,113)                           9242.45906266666 	(obj:0)
STE(4,114)                           10283.3806965167 	(obj:0)
STE(4,115)                           9480.56333384999 	(obj:0)
STE(4,116)                           10239.2250659999 	(obj:0)
STE(4,117)                             11280.14669985 	(obj:0)
STE(4,118)                              10393.1266677 	(obj:0)
STE(4,119)                           11151.7883998499 	(obj:0)
STE(4,120)                              12192.7100337 	(obj:0)
WB(3)                                21.4704933138996 	(obj:0)
AVE(3)                                3399.3204933139 	(obj:0)
WB(4)                                3353.21046544222 	(obj:0)
AVE(4)                               3353.21046544222 	(obj:0)
y2(4,99)                             1894.29827999999 	(obj:0)
WG(3)                                         3377.85 	(obj:10)
BG(1)                                         3377.85 	(obj:10)
BG(2)                                      4495.91835 	(obj:10)
BG(4)                                      2462.45265 	(obj:10)
WB(1)                                3134.60043707458 	(obj:0)
AVE(1)                               3134.60043707458 	(obj:0)
WB(2)                                3326.45170866643 	(obj:0)
AVE(2)                               3326.45170866643 	(obj:0)
y1(1,1)                              897.089403000015 	(obj:0)
y1(2,4)                              1992.79638600001 	(obj:0)
y1(2,5)                              1095.70698300005 	(obj:0)
y1(2,7)                              1992.79638600001 	(obj:0)
y1(2,8)                              1095.70698300005 	(obj:0)
y1(2,10)                             1992.79638600001 	(obj:0)
y1(2,11)                             1095.70698300005 	(obj:0)
y1(3,13)                             897.089403000015 	(obj:0)
y1(3,16)                             897.089402999991 	(obj:0)
y1(3,19)                             897.089403000015 	(obj:0)
y1(3,22)                             897.089402999938 	(obj:0)
y1(3,25)                             897.089402999978 	(obj:0)
y1(3,28)                             897.089402999964 	(obj:0)
y1(3,31)                             897.089402999976 	(obj:0)
y1(3,34)                             897.089403000015 	(obj:0)
y1(3,37)                             897.089402999949 	(obj:0)
y2(1,3)                              960.592982999986 	(obj:0)
y2(3,15)                             960.592982999986 	(obj:0)
y2(3,18)                             960.592982999986 	(obj:0)
y2(3,21)                             960.592982999986 	(obj:0)
y2(3,24)                             960.592982999986 	(obj:0)
y2(3,27)                             960.592982999986 	(obj:0)
y2(3,30)                             960.592982999986 	(obj:0)
y2(3,33)                             960.592982999986 	(obj:0)
y2(3,36)                             960.592982999986 	(obj:0)
y2(3,39)                             960.592982999986 	(obj:0)
y2(4,41)                             798.591296999947 	(obj:0)
y2(4,42)                             1894.29827999999 	(obj:0)
y2(4,44)                             798.591296999947 	(obj:0)
y2(4,45)                             1894.29827999999 	(obj:0)
y2(4,47)                             798.591296999947 	(obj:0)
y2(4,48)                             1894.29827999999 	(obj:0)
y2(4,50)                             798.591296999947 	(obj:0)
y2(4,51)                             1894.29827999999 	(obj:0)
y2(4,53)                             798.591296999947 	(obj:0)
y2(4,54)                             1894.29827999999 	(obj:0)
y2(4,56)                             798.591296999947 	(obj:0)
y2(4,57)                             1894.29827999999 	(obj:0)
y2(4,59)                             798.591296999947 	(obj:0)
y2(4,60)                             1894.29827999999 	(obj:0)
y2(4,62)                             798.591296999947 	(obj:0)
y2(4,63)                             1894.29827999999 	(obj:0)
y2(4,65)                             798.591296999947 	(obj:0)
y2(4,66)                             1894.29827999999 	(obj:0)
y2(4,68)                             798.591296999947 	(obj:0)
y2(4,69)                             1894.29827999999 	(obj:0)
y2(4,71)                             798.591296999947 	(obj:0)
y2(4,72)                             1894.29827999999 	(obj:0)
y2(4,74)                             798.591296999947 	(obj:0)
y2(4,75)                             1894.29827999999 	(obj:0)
y2(4,77)                             798.591296999947 	(obj:0)
y2(4,78)                             1894.29827999999 	(obj:0)
y2(4,80)                             798.591296999947 	(obj:0)
y2(4,81)                             1894.29827999999 	(obj:0)
y2(4,83)                             798.591296999947 	(obj:0)
y2(4,84)                             1894.29827999999 	(obj:0)
y2(4,86)                             798.591296999947 	(obj:0)
y2(4,87)                             1894.29827999999 	(obj:0)
y2(4,89)                             798.591296999947 	(obj:0)
y2(4,90)                             1894.29827999999 	(obj:0)
y2(4,92)                             798.591296999947 	(obj:0)
y2(4,93)                             1894.29827999999 	(obj:0)
y2(4,95)                             798.591296999947 	(obj:0)
y2(4,96)                             1894.29827999999 	(obj:0)
y2(4,98)                             798.591296999947 	(obj:0)
